benchmarks/bfuzz0/20080185812797951161630740421265214534.smt2
(set-logic QF_FP)
(declare-const x0 (_ FloatingPoint 8 24))
(declare-const x1 (_ FloatingPoint 8 24))
(declare-const x2 (_ FloatingPoint 8 24))
(declare-const x3 (_ FloatingPoint 8 24))
(declare-const x4 (_ FloatingPoint 8 24))
(declare-const x5 (_ FloatingPoint 8 24))
(declare-const x6 (_ FloatingPoint 8 24))
(declare-const x7 (_ FloatingPoint 8 24))
(declare-const x8 (_ FloatingPoint 8 24))
(declare-const x9 (_ FloatingPoint 8 24))
(declare-const x10 (_ FloatingPoint 8 24))
(declare-const x11 (_ FloatingPoint 8 24))
(declare-const x12 (_ FloatingPoint 8 24))
(declare-const x13 (_ FloatingPoint 8 24))
(declare-const x14 (_ FloatingPoint 8 24))
(declare-const x15 (_ FloatingPoint 8 24))
(declare-const x16 (_ FloatingPoint 8 24))
(assert (fp.gt (fp.sub RNE x6 x8) (fp.div RNE x8 x15)))
(assert (fp.leq (fp.add RNE x12 x8) (fp.neg x9)))
(assert (fp.geq (fp.div RNE x11 x8) (fp.mul RNE x2 x3)))
(assert (fp.leq (fp.div RNE x13 x11) (fp.div RNE x6 x15)))
(assert (fp.leq (fp.mul RNE x5 x15) (fp.sub RNE x14 x4)))
(assert (fp.eq (fp.mul RNE x10 x15) (fp.neg x3)))
(assert (fp.gt (fp.mul RNE x5 x4) (fp.neg x11)))
(check-sat)
