db/data/20080185812797951161630740421265214534.z3.out
sat
-------------------
40.716923946
